750
[75,76,77,79,80,81,82,83,86,88,89,92,93,95,96,98,99,101,102,103,104,105,106,107,108,109,111,115,116,117,119,120,122,123,124,125,126,127,128,129,131,132,133,134,135,136,138,139,140,141,142,143,144,145,146,147,148,149,151,152,154,155,156,157,158,160,161,162,163,164,165,167,168,169,170,171,174,175,178,179,180,182,183,184,186,187,188,189,190,191,192,193,195,196,197,198,199,200,202,203,204,205,206,207,208,209,212,213,215,216,217,218,219,220,221,222,223,224,225,226,227,228,229,230,231,232,233,234,235,236,237,239,243,244,245,246,247,248,249,250,251,252,253,254,256,257,258,261,262,263,264,265,267,268,269,270,272,273,274,275,276,277,278,280,282,283,284,285,286,287,288,290,291,292,293,294,295,296,297,298,299,300,303,307,311,313,314,315,316,317,318,320,321,322,323,325,326,327,328,329,330,332,334,336,337,338,340,342,343,344,345,346,348,349,350,351,356,357,358,359,361,362,363,364,365,367,368,369,370,371,373,374,375,376,377,379,381,382,383,384,387,390,392,395,396,398,399,401,402,403,404,405,406,407,408,409,410,411,412,413,414,418,420,421,422,423,426,428,429,431,432,433,435,436,438,439,440,441,443,445,446,447,448,449,450,451,453,454,455,456,457,458,459,460,461,462,463,464,465,467,468,469,470,471,475,476,477,478,479,480,481,482,483,484,485,487,488,489,491,493,494,495,496,497,499,500,501,502,503,504,505,508,509,510,511,512,513,514,515,516,517,518,519,520,521,524,525,526,528,529,530,531,533,534,535,536,538,540,542,543,545,546,547,548,550,553,554,555,556,557,558,560,561,562,563,564,567,568,569,571,572,573,574,577,579,580,581,582,583,584,585,586,587,588,589,591,593,594,595,596,597,598,600]
[2,1,2,2,4,4,2,1,1,2,1,1,2,1,1,1,2,2,3,1,1,1,3,3,1,1,2,3,2,2,2,1,1,2,6,4,1,2,3,1,3,2,1,1,2,2,3,2,1,2,2,2,4,1,3,2,1,1,1,3,4,1,1,2,1,1,1,3,2,1,1,1,2,3,4,1,1,1,2,3,2,2,2,4,2,2,1,3,3,3,1,1,2,5,1,3,1,1,1,5,2,1,1,2,3,1,3,5,1,1,1,1,3,1,2,1,2,1,2,3,2,3,1,1,1,3,2,2,2,1,3,1,2,1,1,1,2,2,4,2,1,2,1,2,2,1,1,1,4,4,2,1,1,2,2,2,3,1,2,1,2,2,2,2,1,1,2,2,3,2,1,1,3,3,2,1,2,3,1,2,2,1,1,2,1,1,3,1,3,3,3,1,1,6,1,1,1,1,1,4,1,2,2,5,1,2,1,1,3,2,1,3,1,1,1,1,2,2,2,2,2,2,2,2,2,1,1,2,2,1,1,1,2,2,1,2,2,1,2,1,2,1,3,1,2,2,1,5,1,1,3,1,2,1,3,3,1,2,2,4,2,1,2,2,1,6,1,1,1,1,1,1,2,3,3,1,1,2,2,5,1,3,1,1,2,1,1,4,2,1,1,2,1,1,1,1,1,2,2,3,3,2,1,3,3,1,1,2,3,1,2,1,1,2,1,3,1,4,2,1,5,2,2,4,3,3,3,3,1,1,1,1,2,1,3,2,2,2,4,2,1,1,4,1,1,1,1,1,2,1,1,2,2,1,1,2,2,6,2,2,2,2,1,2,2,2,1,1,2,2,4,2,1,1,1,1,1,2,1,1,2,1,1,3,1,2,1,3,2,1,1,1,2,1,1,1,2,2,1,2,1,1,1]
